NAME : eil76.660.tour
COMMENT : Cost = 0_660
COMMENT : Found by LKH [Keld Helsgaun] Thu Nov 16 16:24:14 2017
TYPE : TOUR
DIMENSION : 85
TOUR_SECTION
1
43
77
33
78
62
79
63
80
22
81
41
82
42
83
64
84
16
3
44
32
9
39
72
58
12
40
17
51
6
68
4
75
76
26
67
34
46
52
27
45
29
48
30
2
74
28
61
21
47
36
69
71
60
70
20
37
5
15
57
13
54
19
8
35
7
53
14
59
66
11
65
38
10
31
55
25
50
18
24
49
23
56
85
73
-1
EOF
